0 0 0 0
0 1 0 0
0 2 0 0
0 3 0 0
0 4 1 3
0 5 1 2
0 6 0 1
0 7 0 2
0 8 1 2
0 9 1 8
0 10 0 3
0 11 0 4
0 12 0 6
0 13 1 4
0 14 0 1
0 15 1 4
0 16 2 1
0 17 0 9
0 18 0 9
0 19 0 8
0 20 0 12
0 21 0 13
0 22 0 8
0 23 0 13
0 24 0 10
0 25 0 15
0 26 1 9
0 27 0 16
0 28 0 15
0 29 0 19
0 30 1 16
0 31 0 22
